Route #1: 26 12 77 33 51 30 70 10 62 88 7 82 8 83 60 5 84 61 85 93 99 59 94 
Route #2: 89 18 48 47 36 49 64 63 20 9 81 68 80 54 4 56 75 74 72 73 21 40 53 
Route #3: 28 76 79 78 34 35 71 65 66 32 90 11 19 46 45 17 16 44 14 43 15 57 87 13 58 
Route #4: 6 96 95 97 92 98 37 100 91 86 38 42 2 41 22 23 67 39 25 55 24 29 3 50 1 69 31 52 27 
cost 811.028
